75
1 0 4
2 0 7
2 1 6
3 0 8
3 1 1
3 2 1
4 0 1
4 1 7
4 2 6
4 3 7
5 0 2
5 1 1
5 2 5
5 3 9
5 4 5
6 0 7
6 1 10
6 2 5
6 3 9
6 4 2
6 5 4
7 0 6
7 1 8
7 2 4
7 3 3
7 4 10
7 5 7
7 6 2
8 0 6
8 1 7
8 2 4
8 3 1
8 4 3
8 5 3
8 6 10
8 7 2
9 0 7
9 1 8
9 2 4
9 3 7
9 4 9
9 5 3
9 6 3
9 7 6
9 8 7
10 0 2
10 1 9
10 2 4
10 3 1
10 4 9
10 5 5
10 6 2
10 7 8
10 8 2
10 9 3
11 0 7
11 1 1
11 2 8
11 3 9
11 4 8
11 5 4
11 6 2
11 7 8
11 8 10
11 9 7
11 10 10
12 0 8
12 1 1
12 2 2
12 3 5
12 4 8
12 5 4
12 6 10
12 7 1
12 8 7
12 9 2
12 10 1
12 11 1
13 0 8
13 1 10
13 2 7
13 3 1
13 4 3
13 5 3
13 6 6
13 7 3
13 8 4
13 9 9
13 10 6
13 11 6
13 12 1
14 0 2
14 1 1
14 2 8
14 3 6
14 4 2
14 5 2
14 6 2
14 7 10
14 8 9
14 9 9
14 10 3
14 11 8
14 12 10
14 13 10
15 0 4
15 1 10
15 2 5
15 3 3
15 4 1
15 5 3
15 6 2
15 7 10
15 8 6
15 9 7
15 10 10
15 11 6
15 12 4
15 13 4
15 14 6
16 0 6
16 1 7
16 2 9
16 3 5
16 4 2
16 5 1
16 6 8
16 7 10
16 8 5
16 9 5
16 10 2
16 11 7
16 12 1
16 13 7
16 14 1
16 15 4
17 0 9
17 1 2
17 2 2
17 3 4
17 4 8
17 5 8
17 6 9
17 7 4
17 8 6
17 9 6
17 10 4
17 11 9
17 12 1
17 13 1
17 14 9
17 15 5
17 16 4
18 0 6
18 1 3
18 2 10
18 3 6
18 4 4
18 5 9
18 6 1
18 7 2
18 8 5
18 9 7
18 10 5
18 11 3
18 12 4
18 13 6
18 14 4
18 15 4
18 16 6
18 17 4
19 0 5
19 1 10
19 2 2
19 3 4
19 4 4
19 5 9
19 6 2
19 7 2
19 8 9
19 9 8
19 10 10
19 11 9
19 12 4
19 13 5
19 14 2
19 15 5
19 16 3
19 17 4
19 18 4
20 0 5
20 1 4
20 2 1
20 3 1
20 4 4
20 5 5
20 6 10
20 7 1
20 8 9
20 9 9
20 10 3
20 11 9
20 12 7
20 13 8
20 14 3
20 15 7
20 16 10
20 17 8
20 18 9
20 19 8
21 0 5
21 1 2
21 2 5
21 3 6
21 4 7
21 5 5
21 6 2
21 7 7
21 8 1
21 9 6
21 10 3
21 11 2
21 12 10
21 13 3
21 14 3
21 15 7
21 16 4
21 17 9
21 18 3
21 19 8
21 20 9
22 0 6
22 1 3
22 2 8
22 3 3
22 4 5
22 5 1
22 6 7
22 7 7
22 8 5
22 9 8
22 10 9
22 11 8
22 12 5
22 13 7
22 14 7
22 15 5
22 16 3
22 17 1
22 18 5
22 19 3
22 20 6
22 21 10
23 0 4
23 1 4
23 2 8
23 3 6
23 4 1
23 5 7
23 6 4
23 7 7
23 8 8
23 9 5
23 10 1
23 11 9
23 12 4
23 13 6
23 14 5
23 15 3
23 16 1
23 17 1
23 18 1
23 19 7
23 20 5
23 21 9
23 22 4
24 0 3
24 1 10
24 2 5
24 3 2
24 4 4
24 5 2
24 6 1
24 7 1
24 8 9
24 9 9
24 10 7
24 11 7
24 12 3
24 13 1
24 14 8
24 15 10
24 16 4
24 17 4
24 18 4
24 19 7
24 20 4
24 21 5
24 22 9
24 23 3
25 0 2
25 1 10
25 2 9
25 3 7
25 4 9
25 5 2
25 6 8
25 7 9
25 8 1
25 9 10
25 10 5
25 11 3
25 12 6
25 13 10
25 14 1
25 15 9
25 16 5
25 17 1
25 18 7
25 19 10
25 20 7
25 21 2
25 22 5
25 23 7
25 24 5
26 0 10
26 1 3
26 2 1
26 3 4
26 4 8
26 5 6
26 6 2
26 7 8
26 8 5
26 9 10
26 10 2
26 11 3
26 12 2
26 13 2
26 14 6
26 15 6
26 16 2
26 17 7
26 18 5
26 19 9
26 20 6
26 21 4
26 22 7
26 23 4
26 24 8
26 25 7
27 0 4
27 1 9
27 2 1
27 3 1
27 4 9
27 5 10
27 6 5
27 7 5
27 8 2
27 9 7
27 10 8
27 11 2
27 12 5
27 13 9
27 14 2
27 15 4
27 16 5
27 17 2
27 18 6
27 19 3
27 20 5
27 21 9
27 22 6
27 23 6
27 24 10
27 25 5
27 26 6
28 0 10
28 1 7
28 2 9
28 3 2
28 4 2
28 5 2
28 6 2
28 7 8
28 8 10
28 9 4
28 10 3
28 11 4
28 12 2
28 13 1
28 14 6
28 15 4
28 16 3
28 17 6
28 18 1
28 19 10
28 20 6
28 21 4
28 22 7
28 23 9
28 24 3
28 25 6
28 26 6
28 27 3
29 0 1
29 1 2
29 2 5
29 3 6
29 4 4
29 5 6
29 6 5
29 7 6
29 8 3
29 9 1
29 10 3
29 11 3
29 12 10
29 13 7
29 14 8
29 15 7
29 16 6
29 17 9
29 18 7
29 19 5
29 20 3
29 21 4
29 22 3
29 23 4
29 24 6
29 25 3
29 26 7
29 27 2
29 28 1
30 0 9
30 1 5
30 2 10
30 3 9
30 4 9
30 5 3
30 6 3
30 7 5
30 8 6
30 9 5
30 10 1
30 11 4
30 12 1
30 13 3
30 14 5
30 15 4
30 16 1
30 17 6
30 18 6
30 19 1
30 20 2
30 21 8
30 22 7
30 23 9
30 24 9
30 25 6
30 26 9
30 27 4
30 28 6
30 29 4
31 0 6
31 1 10
31 2 4
31 3 3
31 4 3
31 5 2
31 6 4
31 7 3
31 8 6
31 9 9
31 10 8
31 11 10
31 12 1
31 13 3
31 14 3
31 15 8
31 16 8
31 17 4
31 18 8
31 19 3
31 20 9
31 21 5
31 22 4
31 23 3
31 24 9
31 25 5
31 26 10
31 27 5
31 28 7
31 29 5
31 30 7
32 0 7
32 1 1
32 2 5
32 3 4
32 4 8
32 5 3
32 6 3
32 7 8
32 8 8
32 9 8
32 10 2
32 11 1
32 12 3
32 13 8
32 14 4
32 15 5
32 16 4
32 17 6
32 18 9
32 19 1
32 20 5
32 21 10
32 22 3
32 23 3
32 24 6
32 25 2
32 26 8
32 27 3
32 28 10
32 29 1
32 30 9
32 31 4
33 0 4
33 1 9
33 2 5
33 3 6
33 4 4
33 5 3
33 6 6
33 7 3
33 8 5
33 9 10
33 10 8
33 11 6
33 12 6
33 13 3
33 14 2
33 15 5
33 16 3
33 17 1
33 18 9
33 19 6
33 20 5
33 21 3
33 22 2
33 23 5
33 24 6
33 25 10
33 26 1
33 27 2
33 28 9
33 29 9
33 30 4
33 31 5
33 32 3
34 0 7
34 1 7
34 2 4
34 3 8
34 4 8
34 5 7
34 6 7
34 7 9
34 8 9
34 9 3
34 10 7
34 11 5
34 12 10
34 13 7
34 14 6
34 15 1
34 16 9
34 17 5
34 18 3
34 19 7
34 20 9
34 21 2
34 22 4
34 23 3
34 24 4
34 25 2
34 26 5
34 27 1
34 28 9
34 29 5
34 30 7
34 31 3
34 32 3
34 33 2
35 0 8
35 1 6
35 2 6
35 3 7
35 4 5
35 5 4
35 6 10
35 7 6
35 8 2
35 9 1
35 10 2
35 11 2
35 12 10
35 13 5
35 14 6
35 15 4
35 16 8
35 17 1
35 18 3
35 19 9
35 20 6
35 21 4
35 22 3
35 23 2
35 24 7
35 25 1
35 26 9
35 27 9
35 28 2
35 29 7
35 30 5
35 31 5
35 32 9
35 33 9
35 34 8
36 0 2
36 1 10
36 2 6
36 3 9
36 4 1
36 5 1
36 6 2
36 7 9
36 8 7
36 9 9
36 10 6
36 11 5
36 12 3
36 13 3
36 14 6
36 15 1
36 16 5
36 17 4
36 18 2
36 19 2
36 20 8
36 21 2
36 22 10
36 23 10
36 24 4
36 25 1
36 26 1
36 27 7
36 28 7
36 29 6
36 30 2
36 31 3
36 32 4
36 33 5
36 34 4
36 35 6
37 0 8
37 1 8
37 2 1
37 3 4
37 4 8
37 5 7
37 6 9
37 7 4
37 8 1
37 9 1
37 10 1
37 11 6
37 12 10
37 13 3
37 14 8
37 15 10
37 16 4
37 17 7
37 18 10
37 19 5
37 20 2
37 21 6
37 22 1
37 23 5
37 24 3
37 25 2
37 26 9
37 27 8
37 28 6
37 29 8
37 30 1
37 31 2
37 32 3
37 33 9
37 34 3
37 35 9
37 36 3
38 0 2
38 1 9
38 2 1
38 3 1
38 4 2
38 5 9
38 6 5
38 7 3
38 8 2
38 9 3
38 10 4
38 11 1
38 12 7
38 13 10
38 14 5
38 15 8
38 16 10
38 17 5
38 18 1
38 19 5
38 20 3
38 21 7
38 22 8
38 23 10
38 24 4
38 25 4
38 26 6
38 27 5
38 28 5
38 29 3
38 30 2
38 31 7
38 32 6
38 33 8
38 34 10
38 35 10
38 36 3
38 37 5
39 0 4
39 1 5
39 2 8
39 3 1
39 4 9
39 5 10
39 6 4
39 7 5
39 8 4
39 9 6
39 10 8
39 11 7
39 12 6
39 13 5
39 14 10
39 15 9
39 16 9
39 17 10
39 18 9
39 19 8
39 20 1
39 21 9
39 22 6
39 23 9
39 24 4
39 25 1
39 26 7
39 27 8
39 28 8
39 29 9
39 30 10
39 31 2
39 32 7
39 33 8
39 34 6
39 35 8
39 36 10
39 37 7
39 38 3
40 0 7
40 1 9
40 2 5
40 3 1
40 4 6
40 5 10
40 6 6
40 7 1
40 8 2
40 9 3
40 10 3
40 11 2
40 12 9
40 13 10
40 14 7
40 15 7
40 16 2
40 17 4
40 18 6
40 19 3
40 20 2
40 21 5
40 22 1
40 23 6
40 24 6
40 25 10
40 26 10
40 27 10
40 28 3
40 29 2
40 30 6
40 31 7
40 32 10
40 33 2
40 34 9
40 35 5
40 36 9
40 37 2
40 38 7
40 39 4
41 0 3
41 1 10
41 2 2
41 3 10
41 4 2
41 5 5
41 6 2
41 7 8
41 8 10
41 9 9
41 10 2
41 11 10
41 12 9
41 13 4
41 14 5
41 15 10
41 16 6
41 17 10
41 18 4
41 19 4
41 20 5
41 21 8
41 22 10
41 23 6
41 24 8
41 25 1
41 26 6
41 27 7
41 28 1
41 29 6
41 30 10
41 31 3
41 32 6
41 33 1
41 34 6
41 35 1
41 36 1
41 37 2
41 38 3
41 39 5
41 40 6
42 0 6
42 1 3
42 2 5
42 3 10
42 4 3
42 5 2
42 6 10
42 7 5
42 8 10
42 9 10
42 10 8
42 11 7
42 12 1
42 13 7
42 14 2
42 15 8
42 16 4
42 17 3
42 18 9
42 19 8
42 20 8
42 21 6
42 22 8
42 23 9
42 24 1
42 25 1
42 26 3
42 27 9
42 28 5
42 29 7
42 30 2
42 31 4
42 32 3
42 33 4
42 34 8
42 35 4
42 36 9
42 37 6
42 38 3
42 39 5
42 40 6
42 41 8
43 0 3
43 1 3
43 2 3
43 3 2
43 4 6
43 5 2
43 6 6
43 7 7
43 8 8
43 9 1
43 10 1
43 11 1
43 12 9
43 13 8
43 14 7
43 15 6
43 16 7
43 17 1
43 18 8
43 19 9
43 20 3
43 21 7
43 22 1
43 23 9
43 24 4
43 25 7
43 26 5
43 27 4
43 28 9
43 29 6
43 30 4
43 31 8
43 32 8
43 33 9
43 34 1
43 35 9
43 36 4
43 37 7
43 38 5
43 39 4
43 40 10
43 41 10
43 42 2
44 0 4
44 1 2
44 2 8
44 3 2
44 4 8
44 5 7
44 6 7
44 7 7
44 8 5
44 9 3
44 10 10
44 11 5
44 12 2
44 13 3
44 14 6
44 15 9
44 16 9
44 17 7
44 18 5
44 19 4
44 20 1
44 21 9
44 22 1
44 23 5
44 24 6
44 25 4
44 26 1
44 27 10
44 28 3
44 29 8
44 30 4
44 31 1
44 32 2
44 33 7
44 34 5
44 35 5
44 36 9
44 37 5
44 38 10
44 39 9
44 40 10
44 41 2
44 42 3
44 43 8
45 0 3
45 1 2
45 2 8
45 3 5
45 4 2
45 5 6
45 6 2
45 7 3
45 8 3
45 9 10
45 10 10
45 11 4
45 12 10
45 13 4
45 14 6
45 15 8
45 16 9
45 17 9
45 18 7
45 19 4
45 20 10
45 21 7
45 22 5
45 23 5
45 24 2
45 25 10
45 26 8
45 27 8
45 28 6
45 29 10
45 30 8
45 31 7
45 32 5
45 33 9
45 34 2
45 35 5
45 36 10
45 37 6
45 38 1
45 39 3
45 40 4
45 41 9
45 42 4
45 43 9
45 44 3
46 0 5
46 1 8
46 2 7
46 3 1
46 4 9
46 5 2
46 6 2
46 7 10
46 8 7
46 9 2
46 10 9
46 11 10
46 12 6
46 13 3
46 14 1
46 15 8
46 16 6
46 17 6
46 18 2
46 19 9
46 20 10
46 21 4
46 22 4
46 23 4
46 24 8
46 25 9
46 26 3
46 27 2
46 28 10
46 29 5
46 30 7
46 31 5
46 32 1
46 33 6
46 34 6
46 35 3
46 36 10
46 37 3
46 38 6
46 39 9
46 40 10
46 41 9
46 42 9
46 43 1
46 44 4
46 45 9
47 0 3
47 1 7
47 2 7
47 3 5
47 4 1
47 5 1
47 6 5
47 7 2
47 8 4
47 9 5
47 10 10
47 11 9
47 12 7
47 13 2
47 14 7
47 15 8
47 16 10
47 17 1
47 18 5
47 19 1
47 20 1
47 21 2
47 22 8
47 23 3
47 24 5
47 25 4
47 26 5
47 27 2
47 28 6
47 29 4
47 30 10
47 31 6
47 32 9
47 33 3
47 34 7
47 35 3
47 36 7
47 37 9
47 38 6
47 39 4
47 40 4
47 41 6
47 42 2
47 43 3
47 44 3
47 45 10
47 46 6
48 0 4
48 1 6
48 2 5
48 3 3
48 4 10
48 5 1
48 6 2
48 7 6
48 8 2
48 9 2
48 10 5
48 11 1
48 12 10
48 13 9
48 14 6
48 15 10
48 16 7
48 17 5
48 18 6
48 19 2
48 20 9
48 21 3
48 22 1
48 23 2
48 24 6
48 25 4
48 26 8
48 27 5
48 28 9
48 29 9
48 30 2
48 31 10
48 32 8
48 33 3
48 34 1
48 35 4
48 36 6
48 37 4
48 38 10
48 39 6
48 40 1
48 41 1
48 42 2
48 43 8
48 44 7
48 45 10
48 46 8
48 47 10
49 0 6
49 1 7
49 2 5
49 3 10
49 4 6
49 5 1
49 6 9
49 7 7
49 8 6
49 9 6
49 10 5
49 11 6
49 12 10
49 13 3
49 14 9
49 15 1
49 16 8
49 17 9
49 18 6
49 19 5
49 20 4
49 21 5
49 22 6
49 23 10
49 24 9
49 25 10
49 26 8
49 27 5
49 28 3
49 29 3
49 30 5
49 31 6
49 32 3
49 33 7
49 34 4
49 35 2
49 36 9
49 37 8
49 38 6
49 39 3
49 40 1
49 41 3
49 42 3
49 43 4
49 44 7
49 45 2
49 46 4
49 47 2
49 48 7
50 0 6
50 1 10
50 2 5
50 3 5
50 4 1
50 5 5
50 6 2
50 7 3
50 8 5
50 9 7
50 10 9
50 11 7
50 12 8
50 13 5
50 14 10
50 15 2
50 16 9
50 17 10
50 18 5
50 19 10
50 20 1
50 21 4
50 22 6
50 23 5
50 24 2
50 25 5
50 26 10
50 27 8
50 28 7
50 29 8
50 30 5
50 31 5
50 32 5
50 33 8
50 34 8
50 35 4
50 36 8
50 37 8
50 38 8
50 39 8
50 40 9
50 41 3
50 42 9
50 43 7
50 44 8
50 45 7
50 46 7
50 47 6
50 48 7
50 49 6
51 0 3
51 1 10
51 2 5
51 3 10
51 4 8
51 5 4
51 6 9
51 7 5
51 8 7
51 9 5
51 10 4
51 11 9
51 12 8
51 13 8
51 14 6
51 15 2
51 16 2
51 17 10
51 18 9
51 19 6
51 20 9
51 21 3
51 22 3
51 23 3
51 24 3
51 25 2
51 26 7
51 27 4
51 28 8
51 29 4
51 30 3
51 31 3
51 32 9
51 33 8
51 34 9
51 35 1
51 36 8
51 37 3
51 38 3
51 39 1
51 40 4
51 41 6
51 42 3
51 43 5
51 44 9
51 45 5
51 46 3
51 47 1
51 48 2
51 49 3
51 50 10
52 0 8
52 1 4
52 2 5
52 3 10
52 4 5
52 5 5
52 6 4
52 7 4
52 8 2
52 9 3
52 10 10
52 11 7
52 12 10
52 13 3
52 14 1
52 15 4
52 16 4
52 17 7
52 18 5
52 19 7
52 20 5
52 21 9
52 22 10
52 23 3
52 24 2
52 25 9
52 26 4
52 27 2
52 28 5
52 29 2
52 30 4
52 31 3
52 32 3
52 33 8
52 34 10
52 35 5
52 36 5
52 37 2
52 38 9
52 39 2
52 40 7
52 41 2
52 42 4
52 43 2
52 44 7
52 45 2
52 46 3
52 47 5
52 48 8
52 49 4
52 50 1
52 51 1
53 0 5
53 1 3
53 2 4
53 3 10
53 4 3
53 5 1
53 6 5
53 7 4
53 8 5
53 9 5
53 10 10
53 11 8
53 12 5
53 13 6
53 14 5
53 15 8
53 16 3
53 17 9
53 18 8
53 19 6
53 20 9
53 21 4
53 22 6
53 23 3
53 24 7
53 25 10
53 26 7
53 27 5
53 28 7
53 29 4
53 30 7
53 31 9
53 32 7
53 33 2
53 34 7
53 35 3
53 36 1
53 37 1
53 38 4
53 39 4
53 40 4
53 41 7
53 42 6
53 43 8
53 44 1
53 45 3
53 46 8
53 47 1
53 48 10
53 49 8
53 50 2
53 51 3
53 52 2
54 0 3
54 1 5
54 2 1
54 3 4
54 4 10
54 5 6
54 6 4
54 7 6
54 8 3
54 9 8
54 10 6
54 11 4
54 12 9
54 13 2
54 14 1
54 15 5
54 16 3
54 17 3
54 18 1
54 19 1
54 20 3
54 21 1
54 22 2
54 23 6
54 24 9
54 25 4
54 26 8
54 27 4
54 28 1
54 29 8
54 30 6
54 31 7
54 32 5
54 33 3
54 34 2
54 35 9
54 36 9
54 37 5
54 38 2
54 39 2
54 40 6
54 41 6
54 42 7
54 43 1
54 44 4
54 45 5
54 46 8
54 47 3
54 48 6
54 49 9
54 50 5
54 51 10
54 52 7
54 53 4
55 0 7
55 1 8
55 2 5
55 3 7
55 4 6
55 5 7
55 6 10
55 7 6
55 8 6
55 9 2
55 10 5
55 11 3
55 12 10
55 13 2
55 14 5
55 15 2
55 16 9
55 17 5
55 18 3
55 19 9
55 20 9
55 21 6
55 22 9
55 23 1
55 24 3
55 25 10
55 26 10
55 27 1
55 28 4
55 29 1
55 30 7
55 31 10
55 32 9
55 33 8
55 34 2
55 35 6
55 36 8
55 37 3
55 38 4
55 39 7
55 40 1
55 41 5
55 42 9
55 43 4
55 44 8
55 45 6
55 46 10
55 47 1
55 48 9
55 49 9
55 50 5
55 51 1
55 52 1
55 53 9
55 54 1
56 0 10
56 1 9
56 2 2
56 3 5
56 4 8
56 5 5
56 6 7
56 7 10
56 8 10
56 9 4
56 10 7
56 11 3
56 12 2
56 13 4
56 14 9
56 15 9
56 16 4
56 17 1
56 18 4
56 19 10
56 20 3
56 21 1
56 22 8
56 23 2
56 24 1
56 25 10
56 26 6
56 27 1
56 28 8
56 29 10
56 30 6
56 31 8
56 32 3
56 33 3
56 34 6
56 35 3
56 36 8
56 37 1
56 38 7
56 39 9
56 40 9
56 41 4
56 42 6
56 43 3
56 44 9
56 45 10
56 46 9
56 47 5
56 48 8
56 49 4
56 50 2
56 51 6
56 52 2
56 53 5
56 54 6
56 55 9
57 0 10
57 1 4
57 2 5
57 3 5
57 4 4
57 5 6
57 6 10
57 7 4
57 8 3
57 9 5
57 10 2
57 11 10
57 12 8
57 13 9
57 14 6
57 15 2
57 16 5
57 17 1
57 18 1
57 19 7
57 20 2
57 21 6
57 22 6
57 23 2
57 24 6
57 25 5
57 26 2
57 27 8
57 28 4
57 29 1
57 30 9
57 31 4
57 32 6
57 33 3
57 34 4
57 35 10
57 36 7
57 37 10
57 38 3
57 39 5
57 40 3
57 41 3
57 42 6
57 43 8
57 44 5
57 45 4
57 46 1
57 47 6
57 48 5
57 49 4
57 50 4
57 51 2
57 52 10
57 53 7
57 54 1
57 55 6
57 56 2
58 0 1
58 1 7
58 2 1
58 3 3
58 4 5
58 5 2
58 6 5
58 7 8
58 8 4
58 9 1
58 10 1
58 11 9
58 12 1
58 13 5
58 14 9
58 15 2
58 16 3
58 17 9
58 18 3
58 19 6
58 20 10
58 21 5
58 22 5
58 23 6
58 24 10
58 25 2
58 26 6
58 27 3
58 28 9
58 29 5
58 30 7
58 31 1
58 32 8
58 33 4
58 34 6
58 35 5
58 36 10
58 37 7
58 38 7
58 39 6
58 40 9
58 41 2
58 42 4
58 43 6
58 44 10
58 45 10
58 46 9
58 47 3
58 48 8
58 49 2
58 50 4
58 51 6
58 52 1
58 53 8
58 54 4
58 55 3
58 56 3
58 57 3
59 0 8
59 1 3
59 2 5
59 3 3
59 4 2
59 5 10
59 6 6
59 7 9
59 8 9
59 9 1
59 10 8
59 11 2
59 12 4
59 13 8
59 14 9
59 15 8
59 16 6
59 17 3
59 18 9
59 19 3
59 20 2
59 21 9
59 22 7
59 23 3
59 24 4
59 25 8
59 26 4
59 27 6
59 28 1
59 29 1
59 30 9
59 31 2
59 32 6
59 33 5
59 34 9
59 35 2
59 36 8
59 37 7
59 38 9
59 39 1
59 40 5
59 41 7
59 42 1
59 43 5
59 44 2
59 45 5
59 46 10
59 47 6
59 48 3
59 49 2
59 50 8
59 51 4
59 52 1
59 53 10
59 54 6
59 55 3
59 56 5
59 57 10
59 58 8
60 0 10
60 1 7
60 2 6
60 3 6
60 4 7
60 5 2
60 6 8
60 7 10
60 8 6
60 9 1
60 10 7
60 11 8
60 12 8
60 13 9
60 14 7
60 15 3
60 16 4
60 17 6
60 18 7
60 19 1
60 20 10
60 21 3
60 22 6
60 23 9
60 24 1
60 25 2
60 26 5
60 27 10
60 28 6
60 29 4
60 30 10
60 31 7
60 32 7
60 33 7
60 34 9
60 35 2
60 36 9
60 37 4
60 38 5
60 39 8
60 40 6
60 41 1
60 42 10
60 43 10
60 44 2
60 45 9
60 46 3
60 47 1
60 48 1
60 49 7
60 50 10
60 51 1
60 52 2
60 53 6
60 54 10
60 55 5
60 56 7
60 57 4
60 58 8
60 59 7
61 0 7
61 1 10
61 2 2
61 3 4
61 4 2
61 5 5
61 6 3
61 7 4
61 8 3
61 9 6
61 10 10
61 11 3
61 12 9
61 13 8
61 14 4
61 15 1
61 16 1
61 17 1
61 18 8
61 19 8
61 20 1
61 21 8
61 22 7
61 23 3
61 24 8
61 25 8
61 26 1
61 27 4
61 28 7
61 29 5
61 30 4
61 31 3
61 32 1
61 33 2
61 34 6
61 35 8
61 36 1
61 37 10
61 38 2
61 39 4
61 40 1
61 41 8
61 42 3
61 43 7
61 44 5
61 45 9
61 46 5
61 47 9
61 48 10
61 49 1
61 50 7
61 51 2
61 52 4
61 53 3
61 54 5
61 55 5
61 56 10
61 57 1
61 58 2
61 59 10
61 60 5
62 0 1
62 1 5
62 2 4
62 3 8
62 4 1
62 5 8
62 6 8
62 7 9
62 8 6
62 9 2
62 10 2
62 11 3
62 12 1
62 13 8
62 14 6
62 15 6
62 16 8
62 17 2
62 18 4
62 19 9
62 20 8
62 21 8
62 22 9
62 23 8
62 24 9
62 25 3
62 26 10
62 27 9
62 28 3
62 29 2
62 30 4
62 31 9
62 32 6
62 33 8
62 34 6
62 35 6
62 36 6
62 37 7
62 38 4
62 39 8
62 40 3
62 41 4
62 42 6
62 43 6
62 44 8
62 45 7
62 46 3
62 47 4
62 48 5
62 49 4
62 50 9
62 51 1
62 52 10
62 53 5
62 54 6
62 55 10
62 56 7
62 57 7
62 58 1
62 59 8
62 60 3
62 61 9
63 0 3
63 1 9
63 2 7
63 3 9
63 4 4
63 5 7
63 6 8
63 7 10
63 8 1
63 9 8
63 10 8
63 11 5
63 12 9
63 13 10
63 14 2
63 15 9
63 16 5
63 17 8
63 18 2
63 19 6
63 20 2
63 21 10
63 22 2
63 23 7
63 24 1
63 25 5
63 26 7
63 27 8
63 28 9
63 29 8
63 30 10
63 31 9
63 32 10
63 33 2
63 34 3
63 35 3
63 36 3
63 37 10
63 38 7
63 39 8
63 40 6
63 41 2
63 42 9
63 43 1
63 44 3
63 45 8
63 46 2
63 47 7
63 48 10
63 49 5
63 50 10
63 51 8
63 52 10
63 53 10
63 54 3
63 55 3
63 56 3
63 57 2
63 58 2
63 59 8
63 60 6
63 61 6
63 62 6
64 0 10
64 1 3
64 2 2
64 3 8
64 4 7
64 5 7
64 6 3
64 7 1
64 8 3
64 9 3
64 10 4
64 11 3
64 12 5
64 13 7
64 14 5
64 15 1
64 16 1
64 17 5
64 18 6
64 19 4
64 20 7
64 21 6
64 22 2
64 23 1
64 24 1
64 25 7
64 26 2
64 27 10
64 28 6
64 29 7
64 30 4
64 31 6
64 32 2
64 33 10
64 34 2
64 35 2
64 36 2
64 37 10
64 38 4
64 39 2
64 40 7
64 41 4
64 42 4
64 43 3
64 44 2
64 45 4
64 46 2
64 47 2
64 48 1
64 49 10
64 50 4
64 51 4
64 52 7
64 53 4
64 54 2
64 55 2
64 56 1
64 57 3
64 58 2
64 59 5
64 60 5
64 61 2
64 62 7
64 63 2
65 0 10
65 1 9
65 2 5
65 3 3
65 4 1
65 5 4
65 6 3
65 7 8
65 8 7
65 9 9
65 10 5
65 11 3
65 12 9
65 13 6
65 14 9
65 15 3
65 16 4
65 17 7
65 18 4
65 19 4
65 20 6
65 21 1
65 22 5
65 23 2
65 24 4
65 25 9
65 26 5
65 27 8
65 28 8
65 29 5
65 30 2
65 31 2
65 32 5
65 33 8
65 34 5
65 35 6
65 36 4
65 37 10
65 38 3
65 39 8
65 40 7
65 41 9
65 42 9
65 43 6
65 44 7
65 45 2
65 46 1
65 47 7
65 48 1
65 49 3
65 50 10
65 51 7
65 52 10
65 53 4
65 54 2
65 55 9
65 56 8
65 57 1
65 58 1
65 59 9
65 60 9
65 61 9
65 62 4
65 63 2
65 64 5
66 0 10
66 1 10
66 2 10
66 3 9
66 4 10
66 5 1
66 6 10
66 7 4
66 8 10
66 9 7
66 10 8
66 11 2
66 12 5
66 13 8
66 14 4
66 15 5
66 16 2
66 17 4
66 18 3
66 19 10
66 20 9
66 21 7
66 22 6
66 23 5
66 24 7
66 25 2
66 26 8
66 27 9
66 28 5
66 29 7
66 30 10
66 31 5
66 32 1
66 33 4
66 34 2
66 35 3
66 36 2
66 37 3
66 38 3
66 39 6
66 40 6
66 41 9
66 42 8
66 43 8
66 44 5
66 45 7
66 46 1
66 47 5
66 48 5
66 49 1
66 50 6
66 51 2
66 52 3
66 53 5
66 54 9
66 55 7
66 56 6
66 57 7
66 58 10
66 59 5
66 60 4
66 61 9
66 62 4
66 63 4
66 64 5
66 65 6
67 0 9
67 1 4
67 2 4
67 3 9
67 4 2
67 5 3
67 6 3
67 7 9
67 8 4
67 9 7
67 10 1
67 11 2
67 12 9
67 13 4
67 14 3
67 15 6
67 16 8
67 17 8
67 18 6
67 19 7
67 20 4
67 21 2
67 22 1
67 23 3
67 24 10
67 25 9
67 26 10
67 27 5
67 28 8
67 29 1
67 30 1
67 31 4
67 32 7
67 33 1
67 34 5
67 35 3
67 36 4
67 37 2
67 38 8
67 39 2
67 40 5
67 41 2
67 42 4
67 43 10
67 44 5
67 45 5
67 46 10
67 47 10
67 48 8
67 49 9
67 50 3
67 51 6
67 52 10
67 53 10
67 54 9
67 55 7
67 56 2
67 57 6
67 58 9
67 59 10
67 60 6
67 61 9
67 62 2
67 63 5
67 64 3
67 65 8
67 66 8
68 0 6
68 1 5
68 2 5
68 3 1
68 4 9
68 5 4
68 6 5
68 7 3
68 8 5
68 9 5
68 10 10
68 11 8
68 12 6
68 13 8
68 14 3
68 15 4
68 16 4
68 17 1
68 18 5
68 19 7
68 20 3
68 21 3
68 22 10
68 23 5
68 24 2
68 25 4
68 26 6
68 27 6
68 28 7
68 29 10
68 30 4
68 31 6
68 32 5
68 33 6
68 34 3
68 35 9
68 36 9
68 37 2
68 38 4
68 39 5
68 40 9
68 41 5
68 42 10
68 43 8
68 44 8
68 45 9
68 46 3
68 47 8
68 48 1
68 49 10
68 50 3
68 51 7
68 52 4
68 53 2
68 54 5
68 55 4
68 56 3
68 57 1
68 58 6
68 59 9
68 60 2
68 61 5
68 62 4
68 63 4
68 64 8
68 65 3
68 66 5
68 67 3
69 0 8
69 1 2
69 2 10
69 3 8
69 4 4
69 5 10
69 6 2
69 7 4
69 8 6
69 9 7
69 10 2
69 11 1
69 12 7
69 13 3
69 14 6
69 15 2
69 16 10
69 17 6
69 18 4
69 19 6
69 20 8
69 21 1
69 22 3
69 23 7
69 24 5
69 25 1
69 26 3
69 27 8
69 28 3
69 29 6
69 30 4
69 31 6
69 32 10
69 33 10
69 34 3
69 35 9
69 36 2
69 37 1
69 38 4
69 39 10
69 40 2
69 41 3
69 42 7
69 43 3
69 44 3
69 45 9
69 46 2
69 47 8
69 48 1
69 49 4
69 50 4
69 51 6
69 52 4
69 53 5
69 54 10
69 55 5
69 56 9
69 57 9
69 58 6
69 59 10
69 60 10
69 61 5
69 62 4
69 63 6
69 64 4
69 65 7
69 66 9
69 67 10
69 68 9
70 0 2
70 1 10
70 2 4
70 3 7
70 4 4
70 5 3
70 6 1
70 7 4
70 8 8
70 9 9
70 10 2
70 11 3
70 12 8
70 13 3
70 14 3
70 15 2
70 16 7
70 17 1
70 18 1
70 19 1
70 20 2
70 21 8
70 22 5
70 23 3
70 24 9
70 25 2
70 26 6
70 27 9
70 28 10
70 29 2
70 30 8
70 31 5
70 32 2
70 33 4
70 34 9
70 35 8
70 36 4
70 37 1
70 38 1
70 39 9
70 40 2
70 41 5
70 42 5
70 43 10
70 44 6
70 45 6
70 46 7
70 47 5
70 48 7
70 49 5
70 50 7
70 51 1
70 52 1
70 53 9
70 54 5
70 55 2
70 56 6
70 57 4
70 58 10
70 59 8
70 60 5
70 61 1
70 62 6
70 63 6
70 64 9
70 65 5
70 66 8
70 67 4
70 68 9
70 69 10
71 0 10
71 1 3
71 2 5
71 3 8
71 4 8
71 5 5
71 6 9
71 7 6
71 8 5
71 9 5
71 10 1
71 11 1
71 12 10
71 13 6
71 14 4
71 15 3
71 16 5
71 17 4
71 18 9
71 19 10
71 20 8
71 21 4
71 22 7
71 23 4
71 24 2
71 25 4
71 26 1
71 27 5
71 28 10
71 29 5
71 30 4
71 31 2
71 32 7
71 33 1
71 34 2
71 35 1
71 36 5
71 37 8
71 38 10
71 39 1
71 40 7
71 41 4
71 42 9
71 43 10
71 44 3
71 45 8
71 46 10
71 47 9
71 48 3
71 49 4
71 50 2
71 51 3
71 52 3
71 53 2
71 54 2
71 55 5
71 56 8
71 57 2
71 58 3
71 59 7
71 60 5
71 61 2
71 62 9
71 63 9
71 64 4
71 65 5
71 66 9
71 67 1
71 68 3
71 69 4
71 70 8
72 0 4
72 1 4
72 2 9
72 3 5
72 4 6
72 5 9
72 6 10
72 7 5
72 8 7
72 9 7
72 10 8
72 11 10
72 12 3
72 13 10
72 14 1
72 15 9
72 16 3
72 17 4
72 18 3
72 19 6
72 20 7
72 21 3
72 22 3
72 23 5
72 24 9
72 25 7
72 26 8
72 27 7
72 28 2
72 29 7
72 30 2
72 31 6
72 32 4
72 33 3
72 34 3
72 35 8
72 36 4
72 37 1
72 38 3
72 39 3
72 40 4
72 41 10
72 42 3
72 43 8
72 44 3
72 45 9
72 46 7
72 47 1
72 48 6
72 49 2
72 50 1
72 51 2
72 52 6
72 53 10
72 54 10
72 55 3
72 56 1
72 57 2
72 58 6
72 59 1
72 60 4
72 61 7
72 62 10
72 63 5
72 64 7
72 65 4
72 66 8
72 67 5
72 68 1
72 69 2
72 70 2
72 71 7
73 0 7
73 1 6
73 2 9
73 3 6
73 4 1
73 5 3
73 6 10
73 7 5
73 8 9
73 9 9
73 10 5
73 11 2
73 12 3
73 13 5
73 14 5
73 15 6
73 16 5
73 17 7
73 18 10
73 19 5
73 20 9
73 21 5
73 22 8
73 23 6
73 24 2
73 25 7
73 26 5
73 27 1
73 28 4
73 29 8
73 30 4
73 31 10
73 32 9
73 33 3
73 34 1
73 35 10
73 36 10
73 37 6
73 38 4
73 39 10
73 40 8
73 41 8
73 42 7
73 43 9
73 44 4
73 45 5
73 46 6
73 47 3
73 48 8
73 49 8
73 50 6
73 51 10
73 52 9
73 53 9
73 54 4
73 55 10
73 56 5
73 57 9
73 58 6
73 59 1
73 60 6
73 61 2
73 62 3
73 63 10
73 64 5
73 65 8
73 66 2
73 67 1
73 68 8
73 69 8
73 70 9
73 71 9
73 72 1
74 0 9
74 1 10
74 2 9
74 3 4
74 4 2
74 5 5
74 6 7
74 7 6
74 8 3
74 9 7
74 10 7
74 11 7
74 12 5
74 13 8
74 14 9
74 15 9
74 16 10
74 17 3
74 18 2
74 19 4
74 20 1
74 21 5
74 22 4
74 23 5
74 24 6
74 25 1
74 26 10
74 27 3
74 28 1
74 29 8
74 30 9
74 31 9
74 32 10
74 33 1
74 34 5
74 35 1
74 36 1
74 37 4
74 38 8
74 39 8
74 40 2
74 41 3
74 42 1
74 43 3
74 44 7
74 45 2
74 46 2
74 47 7
74 48 8
74 49 9
74 50 4
74 51 2
74 52 2
74 53 9
74 54 10
74 55 8
74 56 4
74 57 7
74 58 6
74 59 3
74 60 8
74 61 8
74 62 5
74 63 10
74 64 9
74 65 9
74 66 4
74 67 5
74 68 6
74 69 9
74 70 6
74 71 3
74 72 2
74 73 9
